StudentsNr = 15;
InstructorsNr = 10;
DaysNr = 2;
SlotsPerDay = 10;
AvailabilitySlotsLenght = 2;
RoomNr = 2;
ProgrammNr = 2;
DegreeNr = 1;
RolesNr = 2;
CoursesNr = 3;
InstructorsProgramm = [{1}, {2}, {1}, {1}, {1}, {2}, {2}, {2}, {1, 2}, {2}];
InstructorRolesPerProgramm = [|{1, 3, 9}, {3, 4, 5}|{7, 9}, {7, 8}|];
InstructorsAvailability = [|0, 1, 1, 1, 1, 0, 0, 0, 1, 1, |0, 0, 0, 1, 1, 1, 1, 1, 1, 1, |1, 0, 1, 1, 1, 0, 0, 0, 1, 1, |1, 1, 1, 1, 1, 1, 1, 1, 1, 1, |0, 0, 0, 0, 0, 0, 1, 1, 0, 0, |0, 0, 0, 0, 1, 1, 1, 1, 1, 1, |0, 1, 1, 0, 0, 1, 1, 1, 1, 1, |0, 0, 0, 1, 1, 0, 1, 1, 1, 1, |1, 1, 1, 1, 1, 0, 1, 0, 1, 1, |1, 1, 1, 0, 1, 1, 1, 0, 1, 1|];
StudentsProgramm = [2, 1, 1, 1, 2, 1, 2, 2, 2, 1, 1, 2, 1, 2, 2];
StudentsDegree = [1, 1, 1, 1, 1, 1, 1, 1, 1, 1, 1, 1, 1, 1, 1];
StudentsSupervisorId = [9, 3, 4, 3, 6, 4, 8, 9, 6, 1, 5, 10, 4, 8, 7];
StudentsCourseIds = [{1, 2, 3}, {1, 2, 3}, {1, 2, 3}, {1, 2, 3}, {1, 2, 3}, {1, 2, 3}, {1, 2, 3}, {1, 2, 3}, {1, 2, 3}, {1, 2, 3}, {1, 2, 3}, {1, 2, 3}, {1, 2, 3}, {1, 2, 3}, {1, 2, 3}];
StudentsAvailability = [|1, 1, 1, 1, 1, 1, 1, 1, 1, 1, |1, 1, 1, 1, 1, 1, 1, 1, 1, 1, |1, 1, 1, 1, 1, 1, 1, 1, 1, 1, |0, 1, 1, 1, 1, 1, 0, 0, 0, 1, |1, 1, 1, 1, 1, 1, 1, 1, 1, 1, |0, 0, 0, 0, 0, 0, 1, 1, 1, 1, |0, 1, 1, 1, 1, 1, 1, 1, 0, 1, |1, 0, 0, 0, 1, 1, 1, 0, 1, 1, |1, 1, 1, 1, 1, 0, 1, 1, 1, 0, |0, 0, 0, 1, 1, 1, 1, 1, 1, 1, |0, 1, 1, 1, 0, 1, 1, 1, 1, 1, |1, 0, 0, 0, 1, 1, 1, 1, 1, 1, |0, 0, 1, 1, 1, 1, 1, 1, 1, 0, |0, 1, 1, 1, 1, 1, 1, 1, 1, 1, |1, 1, 1, 1, 1, 1, 1, 1, 1, 1|];
TheoryticalMinCard = [2, 0, 0, 0, 2, 0, 2, 2, 2, 0, 0, 2, 0, 2, 2];
CoursesInstructorIds = [{3, 5, 6, 10}, {3, 5, 6, 9}, {5, 6, 10}];
RolesDemands = [0, 0];
RolesContinuity = [];
ExamLen = [1, 1, 1, 1, 1, 1, 1, 1, 1, 1, 1, 1, 1, 1, 1];
LunchTsMinLen = 1;
LunchStarts = [5..6, 15..16];
SupervisorAvailable = 5;
OptimalLunchLenght = [2, 1];
OptimalStartTs = [1, 2];
OptimalFinishTs = [1, 9];
MinimizeRooms = 400;
RolesSoftContinuity = [|1, 2|0, 2|];
SameDegreeInRoom = 20;
Mergeability = 0;
